Trabalho_1/exemplos/lp/himnickson_20.lp
min: x0 + x1 + x2 + x3 + x4 + x5 + x6 + x7 + x8 + x9 ; 

+ 2 x0 + 1 x1 + 1 x3 + 1 x5  >=  511 ;
+ 1 x1 + 2 x2 + 1 x4 + 1 x7  >=  301 ;
+ 1 x3 + 1 x4 + 2 x6 + 1 x8  >=  263 ;
+ 1 x5 + 1 x6 + 2 x7 + 2 x8 + 3 x9  >=  383 ;
