Trabalho_1/exemplos/programa/himnickson_20.txt
1 4
511 9
301 8
263 7                  
383 6